p cnf 148 499
1 -2 0
2 -1 0
3 -4 0
4 -3 0
5 -6 0
6 -5 0
7 -8 0
8 -7 0
9 -10 0
10 -9 0
11 -12 0
12 -11 0
13 -14 0
14 -13 0
15 -16 0
16 -15 0
17 -18 0
18 -17 0
19 -20 0
20 -19 0
21 -22 0
22 -21 0
23 -24 0
24 -23 0
25 -26 0
26 -25 0
27 -28 0
28 -27 0
29 -30 0
30 -29 0
31 -32 0
32 -31 0
33 -34 0
34 -33 0
35 -36 0
36 -35 0
37 -38 0
38 -37 0
39 -40 0
40 -39 0
41 -42 0
42 -41 0
43 -44 0
44 -43 0
45 -46 0
46 -45 0
47 -48 0
48 -47 0
49 -50 0
50 -49 0
51 -52 0
52 -51 0
53 -54 0
54 -53 0
-17 -35 0
-19 55 0
-21 55 0
19 21 -55 0
-23 56 0
56 -55 0
23 55 -56 0
57 -25 0
57 -56 0
25 56 -57 0
-27 58 0
58 -57 0
27 57 -58 0
-29 59 0
-58 59 0
29 58 -59 0
-31 60 0
-59 60 0
31 59 -60 0
61 -33 0
61 -60 0
33 60 -61 0
61 -62 -35 0
-61 -62 35 0
-61 62 -35 0
61 62 35 0
-33 60 -63 0
-60 33 -63 0
-60 -33 63 0
33 63 60 0
-27 57 -64 0
27 -64 -57 0
-27 64 -57 0
27 64 57 0
19 -65 -21 0
-19 -65 21 0
65 -19 -21 0
19 21 65 0
-23 -66 55 0
-66 23 -55 0
-23 66 -55 0
23 66 55 0
-66 67 0
-65 67 0
-67 65 66 0
56 -25 -68 0
25 -56 -68 0
68 -25 -56 0
68 56 25 0
-66 69 0
69 -65 0
-69 65 66 0
-70 56 -25 0
-70 25 -56 0
70 -25 -56 0
70 56 25 0
70 71 0
69 71 0
70 69 71 0
-71 -70 -69 0
71 72 0
72 -64 0
-72 -71 64 0
-29 58 -73 0
29 -73 -58 0
-29 -58 73 0
29 58 73 0
71 74 0
-64 74 0
-74 -71 64 0
-29 -75 58 0
-75 29 -58 0
-29 75 -58 0
75 29 58 0
75 76 0
74 76 0
75 74 76 0
-74 -75 -76 0
-31 -77 59 0
-77 -59 31 0
-31 77 -59 0
77 31 59 0
75 78 0
74 78 0
75 78 74 0
-74 -78 -75 0
-31 -79 59 0
-79 -59 31 0
-31 -59 79 0
31 79 59 0
79 80 0
80 -78 79 0
80 -78 0
-79 -80 78 0
80 81 0
81 -63 0
-81 -80 63 0
62 81 17 0
-81 -62 17 0
-62 -17 81 0
-81 62 -17 0
29 82 0
47 82 0
-29 -47 -82 0
27 83 0
45 83 0
-27 -45 -83 0
21 84 0
39 84 0
-21 -39 -84 0
19 85 0
37 85 0
-19 -37 -85 0
39 86 0
-85 86 0
-86 -39 85 0
21 87 0
-85 87 0
-87 -21 85 0
23 88 0
-86 88 -87 -84 0
-88 -23 87 0
-88 -23 86 0
-88 -23 84 0
23 89 0
41 89 0
-23 -41 -89 0
41 90 0
-86 -87 90 -84 0
-90 -41 87 0
-90 -41 86 0
-90 -41 84 0
43 91 0
-88 91 -90 -89 0
-91 -43 90 0
89 -91 -43 0
-91 88 -43 0
43 92 0
25 92 0
-92 -43 -25 0
25 93 0
-88 93 -90 -89 0
-25 90 -93 0
89 -25 -93 0
88 -25 -93 0
27 94 0
-91 94 -92 -93 0
-94 -27 93 0
-94 92 -27 0
-94 91 -27 0
45 95 0
-91 95 -92 -93 0
93 -45 -95 0
92 -45 -95 0
91 -45 -95 0
47 96 0
-94 -83 96 -95 0
-96 -47 95 0
-96 -47 94 0
-96 -47 83 0
29 97 0
-94 -83 97 -95 0
-29 95 -97 0
-29 94 -97 0
-29 83 -97 0
31 98 0
98 -96 -82 -97 0
-31 -98 97 0
-31 -98 96 0
-31 -98 82 0
31 99 0
49 99 0
-31 -49 -99 0
49 100 0
-96 100 -82 -97 0
-49 -100 97 0
-49 96 -100 0
-49 -100 82 0
51 101 0
-98 -99 101 -100 0
-101 100 -51 0
99 -101 -51 0
98 -101 -51 0
33 102 0
-98 102 -99 -100 0
100 -33 -102 0
99 -33 -102 0
98 -33 -102 0
51 103 0
33 103 0
-51 -33 -103 0
-53 103 0
-53 102 0
-53 101 0
104 -37 0
104 -39 0
37 39 -104 0
105 -41 0
105 -104 0
41 104 -105 0
106 -43 0
106 -105 0
43 105 -106 0
106 -45 -107 0
45 -106 -107 0
107 -106 -45 0
45 107 106 0
108 -45 0
108 -106 0
45 106 -108 0
108 -47 -109 0
-108 47 -109 0
-47 109 -108 0
108 109 47 0
110 -109 0
110 -107 0
107 -110 109 0
-47 111 0
111 -108 0
47 108 -111 0
-112 -49 111 0
-112 -111 49 0
-49 112 -111 0
111 112 49 0
113 -109 0
113 -107 0
-113 107 109 0
-114 -49 111 0
-114 -111 49 0
-49 -111 114 0
111 114 49 0
114 115 0
113 115 0
113 114 115 0
-114 -113 -115 0
-49 116 0
116 -111 0
49 111 -116 0
-51 -117 116 0
51 -117 -116 0
-51 -116 117 0
51 116 117 0
33 115 117 0
33 -117 -115 0
-33 -115 117 0
-117 -33 115 0
-17 0
-35 0
-53 0
15 118 0
33 118 0
-15 -33 -118 0
31 119 0
13 119 0
-31 -13 -119 0
29 120 0
11 120 0
-29 -120 -11 0
23 121 0
5 121 0
-23 -5 -121 0
1 122 0
19 122 0
-1 -19 -122 0
3 123 0
-122 123 0
122 -123 -3 0
21 124 0
-122 124 0
122 -124 -21 0
21 125 0
3 125 0
-21 -125 -3 0
23 126 0
-124 126 -123 -125 0
-126 -23 125 0
-126 -23 124 0
-126 -23 123 0
5 127 0
-124 -123 -125 127 0
-5 125 -127 0
-5 124 -127 0
-5 123 -127 0
25 128 0
-126 -121 128 -127 0
-128 127 -25 0
126 -128 -25 0
121 -128 -25 0
7 129 0
-126 -121 129 -127 0
-7 127 -129 0
-7 126 -129 0
121 -7 -129 0
7 130 0
25 130 0
-7 -25 -130 0
9 131 0
-128 -129 -130 131 0
-9 130 -131 0
-9 129 -131 0
-9 128 -131 0
27 132 0
132 -128 -129 -130 0
-132 -27 130 0
-132 -27 129 0
-132 -27 128 0
9 133 0
27 133 0
-9 -27 -133 0
29 134 0
134 -132 -133 -131 0
-29 -134 133 0
-29 132 -134 0
-29 -134 131 0
11 135 0
-132 -133 135 -131 0
-135 -11 133 0
-135 132 -11 0
-135 -11 131 0
13 136 0
-120 136 -135 -134 0
-13 -136 135 0
134 -13 -136 0
120 -13 -136 0
31 137 0
137 -120 -135 -134 0
-31 135 -137 0
134 -31 -137 0
-31 120 -137 0
15 138 0
138 -136 -119 -137 0
137 -138 -15 0
-138 -15 136 0
-138 -15 119 0
33 139 0
-136 139 -119 -137 0
137 -33 -139 0
-33 136 -139 0
119 -33 -139 0
-17 139 0
-17 138 0
-17 118 0
139 -35 0
138 -35 0
118 -35 0
11 74 75 0
11 -74 -75 0
-75 74 -11 0
-74 75 -11 0
7 69 70 0
7 -69 -70 0
-7 69 -70 0
-7 70 -69 0
3 -65 0
-3 65 0
15 63 80 0
15 -63 -80 0
-15 -80 63 0
80 -15 -63 0
-140 13 79 78 0
-78 -13 -140 79 0
-79 -13 -140 78 0
-79 -78 -140 13 0
-79 -78 -13 140 0
-79 140 13 78 0
-78 140 13 79 0
-13 140 79 78 0
-140 0
9 64 71 0
9 -64 -71 0
-9 -71 64 0
-9 -64 71 0
-141 65 5 66 0
-5 -66 -141 65 0
-5 -65 -141 66 0
-66 -65 -141 5 0
-5 -66 -65 141 0
-65 5 141 66 0
-66 65 5 141 0
-5 65 141 66 0
-141 0
1 -19 0
-1 19 0
103 -35 0
102 -35 0
101 -35 0
-53 -35 0
37 21 -142 39 0
37 -142 -21 -39 0
-37 -142 -21 39 0
-37 21 -142 -39 0
-37 142 -21 -39 0
-37 21 142 39 0
37 21 142 -39 0
37 142 -21 39 0
-142 0
31 113 114 0
31 -113 -114 0
-31 -114 113 0
-31 -113 114 0
104 23 41 -143 0
-23 104 -41 -143 0
-23 -104 41 -143 0
-104 23 -41 -143 0
-23 -104 143 -41 0
-104 23 143 41 0
104 23 143 -41 0
-23 104 143 41 0
-143 0
107 29 109 -144 0
-29 107 -144 -109 0
-29 109 -144 -107 0
29 -144 -109 -107 0
-29 -109 144 -107 0
29 109 144 -107 0
107 29 -109 144 0
-29 107 109 144 0
-144 0
145 -51 0
145 -116 0
51 116 -145 0
-53 145 -146 0
53 -146 -145 0
-53 146 -145 0
53 146 145 0
147 -117 0
115 147 0
117 -115 -147 0
147 146 35 0
35 -146 -147 0
147 -146 -35 0
146 -147 -35 0
19 -37 0
-19 37 0
27 -107 0
107 -27 0
43 105 -148 25 0
105 -148 -43 -25 0
43 -148 -105 -25 0
-148 25 -105 -43 0
-105 148 -43 -25 0
43 25 -105 148 0
105 25 148 -43 0
43 105 148 -25 0
-148 0
